NAME: random-49-4842
TYPE: TSP
COMMENT: size=49 seed=4842
DIMENSION: 100
EDGE_WEIGHT_TYPE: EUC_2D
NODE_COORD_SECTION
+0 494 166
-0 494 166
+1 447 204
-1 179 587
+2 183 303
-2 648 725
+3 383 315
-3 128 618
+4 231 879
-4 448 323
+5 539 23
-5 381 459
+6 761 89
-6 443 674
+7 14 505
-7 345 62
+8 414 651
-8 112 903
+9 557 144
-9 212 386
+10 402 45
-10 53 303
+11 732 193
-11 450 521
+12 308 483
-12 825 315
+13 439 691
-13 323 98
+14 723 170
-14 166 755
+15 64 798
-15 405 240
+16 723 249
-16 298 503
+17 893 607
-17 588 582
+18 43 618
-18 775 932
+19 314 738
-19 361 635
+20 654 419
-20 446 391
+21 326 134
-21 502 904
+22 909 522
-22 833 65
+23 957 849
-23 470 460
+24 107 876
-24 108 131
+25 995 819
-25 52 815
+26 986 187
-26 439 754
+27 759 957
-27 403 421
+28 95 486
-28 495 97
+29 433 548
-29 436 647
+30 240 131
-30 90 854
+31 480 964
-31 119 93
+32 927 565
-32 946 751
+33 675 931
-33 218 863
+34 97 546
-34 561 824
+35 301 680
-35 672 95
+36 305 767
-36 38 173
+37 730 897
-37 262 25
+38 320 949
-38 653 4
+39 727 929
-39 187 556
+40 166 70
-40 951 692
+41 757 993
-41 185 159
+42 383 686
-42 447 412
+43 84 501
-43 80 884
+44 525 740
-44 142 386
+45 446 784
-45 372 221
+46 689 996
-46 2 370
+47 49 944
-47 441 553
+48 41 604
-48 877 642
+49 282 501
-49 549 513
PRECEDENCE_SECTION
+0 -0
+1 -1
+2 -2
+3 -3
+4 -4
+5 -5
+6 -6
+7 -7
+8 -8
+9 -9
+10 -10
+11 -11
+12 -12
+13 -13
+14 -14
+15 -15
+16 -16
+17 -17
+18 -18
+19 -19
+20 -20
+21 -21
+22 -22
+23 -23
+24 -24
+25 -25
+26 -26
+27 -27
+28 -28
+29 -29
+30 -30
+31 -31
+32 -32
+33 -33
+34 -34
+35 -35
+36 -36
+37 -37
+38 -38
+39 -39
+40 -40
+41 -41
+42 -42
+43 -43
+44 -44
+45 -45
+46 -46
+47 -47
+48 -48
+49 -49
EOF
